(set-info :smt-lib-version 2.6)
(set-logic UFLIA)
(set-info :source |Benchmarks from the paper: "Extending Sledgehammer with SMT Solvers" by Jasmin Blanchette, Sascha Bohme, and Lawrence C. Paulson, CADE 2011.  Translated to SMT2 by Andrew Reynolds and Morgan Deters.|)
(set-info :category "industrial")
(set-info :status unknown)
(declare-sort S1 0)
(declare-sort S2 0)
(declare-sort S3 0)
(declare-sort S4 0)
(declare-sort S5 0)
(declare-sort S6 0)
(declare-sort S7 0)
(declare-sort S8 0)
(declare-sort S9 0)
(declare-sort S10 0)
(declare-sort S11 0)
(declare-sort S12 0)
(declare-sort S13 0)
(declare-sort S14 0)
(declare-sort S15 0)
(declare-sort S16 0)
(declare-sort S17 0)
(declare-sort S18 0)
(declare-sort S19 0)
(declare-sort S20 0)
(declare-sort S21 0)
(declare-sort S22 0)
(declare-sort S23 0)
(declare-sort S24 0)
(declare-sort S25 0)
(declare-sort S26 0)
(declare-sort S27 0)
(declare-sort S28 0)
(declare-sort S29 0)
(declare-sort S30 0)
(declare-sort S31 0)
(declare-sort S32 0)
(declare-sort S33 0)
(declare-sort S34 0)
(declare-sort S35 0)
(declare-sort S36 0)
(declare-sort S37 0)
(declare-sort S38 0)
(declare-sort S39 0)
(declare-sort S40 0)
(declare-sort S41 0)
(declare-sort S42 0)
(declare-sort S43 0)
(declare-sort S44 0)
(declare-sort S45 0)
(declare-sort S46 0)
(declare-sort S47 0)
(declare-sort S48 0)
(declare-sort S49 0)
(declare-sort S50 0)
(declare-sort S51 0)
(declare-sort S52 0)
(declare-sort S53 0)
(declare-sort S54 0)
(declare-sort S55 0)
(declare-sort S56 0)
(declare-sort S57 0)
(declare-sort S58 0)
(declare-sort S59 0)
(declare-sort S60 0)
(declare-sort S61 0)
(declare-sort S62 0)
(declare-fun f1 () S1)
(declare-fun f2 () S1)
(declare-fun f3 (S3 S2) S4)
(declare-fun f4 () S3)
(declare-fun f5 (S5 S6) S4)
(declare-fun f6 () S5)
(declare-fun f7 (S7) S6)
(declare-fun f8 (S8 S2) S7)
(declare-fun f9 () S8)
(declare-fun f10 () S3)
(declare-fun f11 (S2) S6)
(declare-fun f12 (S10 S9) S1)
(declare-fun f13 (S9) S10)
(declare-fun f14 (S11 S9) Int)
(declare-fun f15 () S11)
(declare-fun f16 (S13 S12) S1)
(declare-fun f17 (S12) S13)
(declare-fun f18 (S12) S13)
(declare-fun f19 (S15 S14) S1)
(declare-fun f20 (S14) S15)
(declare-fun f21 (S14) S15)
(declare-fun f22 (S16 S10) S1)
(declare-fun f23 (S10) S16)
(declare-fun f24 (S10) S16)
(declare-fun f25 (S17 S13) S1)
(declare-fun f26 (S13) S17)
(declare-fun f27 (S13) S17)
(declare-fun f28 (S18 S15) S1)
(declare-fun f29 (S15) S18)
(declare-fun f30 (S15 S15) S1)
(declare-fun f31 (S19 S16) S1)
(declare-fun f32 (S16) S19)
(declare-fun f33 (S16 S16) S1)
(declare-fun f34 (S20 S17) S1)
(declare-fun f35 (S17) S20)
(declare-fun f36 (S17 S17) S1)
(declare-fun f37 (S12 S4) S1)
(declare-fun f38 (S21 S12) S12)
(declare-fun f39 (S12) S21)
(declare-fun f40 (S14 S2) S1)
(declare-fun f41 (S22 S14) S14)
(declare-fun f42 (S14) S22)
(declare-fun f43 (S23 S10) S10)
(declare-fun f44 (S10) S23)
(declare-fun f45 (S24 S13) S13)
(declare-fun f46 (S13) S24)
(declare-fun f47 (S25 S15) S15)
(declare-fun f48 (S15) S25)
(declare-fun f49 (S26 S16) S16)
(declare-fun f50 (S16) S26)
(declare-fun f51 (S27 S17) S17)
(declare-fun f52 (S17) S27)
(declare-fun f53 (S12) S13)
(declare-fun f54 (S28 S14) S12)
(declare-fun f55 (S3) S28)
(declare-fun f56 (S8) S14)
(declare-fun f57 () S12)
(declare-fun f58 () S1)
(declare-fun f59 () S1)
(declare-fun f60 (S12) S1)
(declare-fun f61 (S13) S1)
(declare-fun f62 (S13) S13)
(declare-fun f63 (S15) S1)
(declare-fun f64 (S18) S1)
(declare-fun f65 (S18) S18)
(declare-fun f66 (S16) S1)
(declare-fun f67 (S19) S1)
(declare-fun f68 (S19) S19)
(declare-fun f69 (S17) S1)
(declare-fun f70 (S20) S1)
(declare-fun f71 (S20) S20)
(declare-fun f72 (S17) S17)
(declare-fun f73 (S10) S1)
(declare-fun f74 (S16) S16)
(declare-fun f75 (S14) S1)
(declare-fun f76 (S15) S15)
(declare-fun f77 (S30 S15) S12)
(declare-fun f78 (S29) S30)
(declare-fun f79 (S32 S16) S12)
(declare-fun f80 (S31) S32)
(declare-fun f81 (S34 S17) S12)
(declare-fun f82 (S33) S34)
(declare-fun f83 (S36 S13) S12)
(declare-fun f84 (S35) S36)
(declare-fun f85 (S38 S10) S12)
(declare-fun f86 (S37) S38)
(declare-fun f87 (S40 S12) S15)
(declare-fun f88 (S39) S40)
(declare-fun f89 (S42 S12) S16)
(declare-fun f90 (S41) S42)
(declare-fun f91 (S44 S12) S17)
(declare-fun f92 (S43) S44)
(declare-fun f93 (S46 S12) S13)
(declare-fun f94 (S45) S46)
(declare-fun f95 (S48 S12) S10)
(declare-fun f96 (S47) S48)
(declare-fun f97 (S50 S12) S14)
(declare-fun f98 (S49) S50)
(declare-fun f99 (S52 S10) S14)
(declare-fun f100 (S51) S52)
(declare-fun f101 (S53) S23)
(declare-fun f102 (S55 S10) S13)
(declare-fun f103 (S54) S55)
(declare-fun f104 (S10) S10)
(declare-fun f105 (S12) S12)
(declare-fun f106 (S14) S14)
(declare-fun f107 (S2) S15)
(declare-fun f108 (S4) S13)
(declare-fun f109 (S53 S9) S9)
(declare-fun f110 (S9) S16)
(declare-fun f111 (S54 S9) S12)
(declare-fun f112 (S12) S17)
(declare-fun f113 (S35 S12) S4)
(declare-fun f114 (S47 S4) S9)
(declare-fun f115 (S45 S4) S12)
(declare-fun f116 (S51 S9) S2)
(declare-fun f117 (S49 S4) S2)
(declare-fun f118 (S37 S9) S4)
(declare-fun f119 (S57 S10) S15)
(declare-fun f120 (S56) S57)
(declare-fun f121 (S59 S10) S16)
(declare-fun f122 (S58) S59)
(declare-fun f123 (S61 S10) S17)
(declare-fun f124 (S60) S61)
(declare-fun f125 (S62 Int) S9)
(declare-fun f126 () S62)
(assert (not (= f1 f2)))
(assert (forall ((?v0 S2)) (= (f3 f4 ?v0) (f5 f6 (f7 (f8 f9 ?v0))))))
(assert (forall ((?v0 S2)) (= (f3 f10 ?v0) (f5 f6 (f11 ?v0)))))
(assert (forall ((?v0 S9) (?v1 S9)) (= (= (f12 (f13 ?v0) ?v1) f1) (< (f14 f15 ?v1) (f14 f15 ?v0)))))
(assert (forall ((?v0 S12) (?v1 S12)) (= (= (f16 (f17 ?v0) ?v1) f1) (= (f16 (f18 ?v1) ?v0) f1))))
(assert (forall ((?v0 S14) (?v1 S14)) (= (= (f19 (f20 ?v0) ?v1) f1) (= (f19 (f21 ?v1) ?v0) f1))))
(assert (forall ((?v0 S10) (?v1 S10)) (= (= (f22 (f23 ?v0) ?v1) f1) (= (f22 (f24 ?v1) ?v0) f1))))
(assert (forall ((?v0 S13) (?v1 S13)) (= (= (f25 (f26 ?v0) ?v1) f1) (= (f25 (f27 ?v1) ?v0) f1))))
(assert (forall ((?v0 S15) (?v1 S15)) (= (= (f28 (f29 ?v0) ?v1) f1) (= (f30 ?v1 ?v0) f1))))
(assert (forall ((?v0 S16) (?v1 S16)) (= (= (f31 (f32 ?v0) ?v1) f1) (= (f33 ?v1 ?v0) f1))))
(assert (forall ((?v0 S17) (?v1 S17)) (= (= (f34 (f35 ?v0) ?v1) f1) (= (f36 ?v1 ?v0) f1))))
(assert (forall ((?v0 S12) (?v1 S12) (?v2 S4)) (= (= (f37 (f38 (f39 ?v0) ?v1) ?v2) f1) (and (= (f37 ?v0 ?v2) f1) (= (f37 ?v1 ?v2) f1)))))
(assert (forall ((?v0 S14) (?v1 S14) (?v2 S2)) (= (= (f40 (f41 (f42 ?v0) ?v1) ?v2) f1) (and (= (f40 ?v0 ?v2) f1) (= (f40 ?v1 ?v2) f1)))))
(assert (forall ((?v0 S10) (?v1 S10) (?v2 S9)) (= (= (f12 (f43 (f44 ?v0) ?v1) ?v2) f1) (and (= (f12 ?v0 ?v2) f1) (= (f12 ?v1 ?v2) f1)))))
(assert (forall ((?v0 S13) (?v1 S13) (?v2 S12)) (= (= (f16 (f45 (f46 ?v0) ?v1) ?v2) f1) (and (= (f16 ?v0 ?v2) f1) (= (f16 ?v1 ?v2) f1)))))
(assert (forall ((?v0 S15) (?v1 S15) (?v2 S14)) (= (= (f19 (f47 (f48 ?v0) ?v1) ?v2) f1) (and (= (f19 ?v0 ?v2) f1) (= (f19 ?v1 ?v2) f1)))))
(assert (forall ((?v0 S16) (?v1 S16) (?v2 S10)) (= (= (f22 (f49 (f50 ?v0) ?v1) ?v2) f1) (and (= (f22 ?v0 ?v2) f1) (= (f22 ?v1 ?v2) f1)))))
(assert (forall ((?v0 S17) (?v1 S17) (?v2 S13)) (= (= (f25 (f51 (f52 ?v0) ?v1) ?v2) f1) (and (= (f25 ?v0 ?v2) f1) (= (f25 ?v1 ?v2) f1)))))
(assert (not (= (f16 (f53 (f54 (f55 f10) (f56 f9))) f57) f1)))
(assert (= f58 f1))
(assert (= f59 f1))
(assert (= (f16 (f18 f57) (f54 (f55 f4) (f56 f9))) f1))
(assert (= (f60 f57) f1))
(assert (forall ((?v0 S12) (?v1 S12)) (=> (= (f16 (f18 ?v0) ?v1) f1) (= (f16 (f53 ?v1) ?v0) f1))))
(assert (forall ((?v0 S12) (?v1 S12) (?v2 S12)) (let ((?v_0 (f53 ?v0))) (=> (= (f16 ?v_0 ?v1) f1) (=> (= (f16 (f18 ?v2) ?v1) f1) (= (f16 ?v_0 ?v2) f1))))))
(assert (forall ((?v0 S12) (?v1 S12) (?v2 S12)) (=> (= (f16 (f53 ?v0) ?v1) f1) (=> (= (f16 (f18 ?v0) ?v2) f1) (= (f16 (f53 ?v2) ?v1) f1)))))
(assert (forall ((?v0 S12) (?v1 S12) (?v2 S12)) (let ((?v_0 (f53 ?v2))) (=> (= (f16 (f53 ?v0) ?v1) f1) (=> (= (f16 ?v_0 ?v0) f1) (= (f16 ?v_0 ?v1) f1))))))
(assert (forall ((?v0 S12)) (=> (= (f60 ?v0) f1) (= (f61 (f62 (f17 ?v0))) f1))))
(assert (forall ((?v0 S15)) (=> (= (f63 ?v0) f1) (= (f64 (f65 (f29 ?v0))) f1))))
(assert (forall ((?v0 S16)) (=> (= (f66 ?v0) f1) (= (f67 (f68 (f32 ?v0))) f1))))
(assert (forall ((?v0 S17)) (=> (= (f69 ?v0) f1) (= (f70 (f71 (f35 ?v0))) f1))))
(assert (forall ((?v0 S13)) (=> (= (f61 ?v0) f1) (= (f69 (f72 (f26 ?v0))) f1))))
(assert (forall ((?v0 S10)) (=> (= (f73 ?v0) f1) (= (f66 (f74 (f23 ?v0))) f1))))
(assert (forall ((?v0 S14)) (=> (= (f75 ?v0) f1) (= (f63 (f76 (f20 ?v0))) f1))))
(assert (forall ((?v0 S14) (?v1 S3)) (=> (= (f75 ?v0) f1) (= (f60 (f54 (f55 ?v1) ?v0)) f1))))
(assert (forall ((?v0 S15) (?v1 S29)) (=> (= (f63 ?v0) f1) (= (f60 (f77 (f78 ?v1) ?v0)) f1))))
(assert (forall ((?v0 S16) (?v1 S31)) (=> (= (f66 ?v0) f1) (= (f60 (f79 (f80 ?v1) ?v0)) f1))))
(assert (forall ((?v0 S17) (?v1 S33)) (=> (= (f69 ?v0) f1) (= (f60 (f81 (f82 ?v1) ?v0)) f1))))
(assert (forall ((?v0 S13) (?v1 S35)) (=> (= (f61 ?v0) f1) (= (f60 (f83 (f84 ?v1) ?v0)) f1))))
(assert (forall ((?v0 S10) (?v1 S37)) (=> (= (f73 ?v0) f1) (= (f60 (f85 (f86 ?v1) ?v0)) f1))))
(assert (forall ((?v0 S12) (?v1 S39)) (=> (= (f60 ?v0) f1) (= (f63 (f87 (f88 ?v1) ?v0)) f1))))
(assert (forall ((?v0 S12) (?v1 S41)) (=> (= (f60 ?v0) f1) (= (f66 (f89 (f90 ?v1) ?v0)) f1))))
(assert (forall ((?v0 S12) (?v1 S43)) (=> (= (f60 ?v0) f1) (= (f69 (f91 (f92 ?v1) ?v0)) f1))))
(assert (forall ((?v0 S12) (?v1 S45)) (=> (= (f60 ?v0) f1) (= (f61 (f93 (f94 ?v1) ?v0)) f1))))
(assert (forall ((?v0 S12) (?v1 S47)) (=> (= (f60 ?v0) f1) (= (f73 (f95 (f96 ?v1) ?v0)) f1))))
(assert (forall ((?v0 S12) (?v1 S49)) (=> (= (f60 ?v0) f1) (= (f75 (f97 (f98 ?v1) ?v0)) f1))))
(assert (forall ((?v0 S10) (?v1 S51)) (=> (= (f73 ?v0) f1) (= (f75 (f99 (f100 ?v1) ?v0)) f1))))
(assert (forall ((?v0 S10) (?v1 S53)) (=> (= (f73 ?v0) f1) (= (f73 (f43 (f101 ?v1) ?v0)) f1))))
(assert (forall ((?v0 S10) (?v1 S54)) (=> (= (f73 ?v0) f1) (= (f61 (f102 (f103 ?v1) ?v0)) f1))))
(assert (forall ((?v0 S10) (?v1 S10)) (=> (or (= (f73 (f104 ?v0)) f1) (= (f73 (f104 ?v1)) f1)) (= (f73 (f104 (f43 (f44 ?v0) ?v1))) f1))))
(assert (forall ((?v0 S12) (?v1 S12)) (=> (or (= (f60 (f105 ?v0)) f1) (= (f60 (f105 ?v1)) f1)) (= (f60 (f105 (f38 (f39 ?v0) ?v1))) f1))))
(assert (forall ((?v0 S15) (?v1 S15)) (=> (or (= (f63 (f76 ?v0)) f1) (= (f63 (f76 ?v1)) f1)) (= (f63 (f76 (f47 (f48 ?v0) ?v1))) f1))))
(assert (forall ((?v0 S16) (?v1 S16)) (=> (or (= (f66 (f74 ?v0)) f1) (= (f66 (f74 ?v1)) f1)) (= (f66 (f74 (f49 (f50 ?v0) ?v1))) f1))))
(assert (forall ((?v0 S17) (?v1 S17)) (=> (or (= (f69 (f72 ?v0)) f1) (= (f69 (f72 ?v1)) f1)) (= (f69 (f72 (f51 (f52 ?v0) ?v1))) f1))))
(assert (forall ((?v0 S14) (?v1 S14)) (=> (or (= (f75 (f106 ?v0)) f1) (= (f75 (f106 ?v1)) f1)) (= (f75 (f106 (f41 (f42 ?v0) ?v1))) f1))))
(assert (forall ((?v0 S13) (?v1 S13)) (=> (or (= (f61 (f62 ?v0)) f1) (= (f61 (f62 ?v1)) f1)) (= (f61 (f62 (f45 (f46 ?v0) ?v1))) f1))))
(assert (forall ((?v0 S14) (?v1 S12) (?v2 S3)) (=> (= (f75 ?v0) f1) (=> (= (f16 (f18 ?v1) (f54 (f55 ?v2) ?v0)) f1) (= (f60 ?v1) f1)))))
(assert (forall ((?v0 S15) (?v1 S12) (?v2 S29)) (=> (= (f63 ?v0) f1) (=> (= (f16 (f18 ?v1) (f77 (f78 ?v2) ?v0)) f1) (= (f60 ?v1) f1)))))
(assert (forall ((?v0 S16) (?v1 S12) (?v2 S31)) (=> (= (f66 ?v0) f1) (=> (= (f16 (f18 ?v1) (f79 (f80 ?v2) ?v0)) f1) (= (f60 ?v1) f1)))))
(assert (forall ((?v0 S17) (?v1 S12) (?v2 S33)) (=> (= (f69 ?v0) f1) (=> (= (f16 (f18 ?v1) (f81 (f82 ?v2) ?v0)) f1) (= (f60 ?v1) f1)))))
(assert (forall ((?v0 S13) (?v1 S12) (?v2 S35)) (=> (= (f61 ?v0) f1) (=> (= (f16 (f18 ?v1) (f83 (f84 ?v2) ?v0)) f1) (= (f60 ?v1) f1)))))
(assert (forall ((?v0 S10) (?v1 S12) (?v2 S37)) (=> (= (f73 ?v0) f1) (=> (= (f16 (f18 ?v1) (f85 (f86 ?v2) ?v0)) f1) (= (f60 ?v1) f1)))))
(assert (forall ((?v0 S12) (?v1 S15) (?v2 S39)) (=> (= (f60 ?v0) f1) (=> (= (f30 ?v1 (f87 (f88 ?v2) ?v0)) f1) (= (f63 ?v1) f1)))))
(assert (forall ((?v0 S12) (?v1 S16) (?v2 S41)) (=> (= (f60 ?v0) f1) (=> (= (f33 ?v1 (f89 (f90 ?v2) ?v0)) f1) (= (f66 ?v1) f1)))))
(assert (forall ((?v0 S12) (?v1 S17) (?v2 S43)) (=> (= (f60 ?v0) f1) (=> (= (f36 ?v1 (f91 (f92 ?v2) ?v0)) f1) (= (f69 ?v1) f1)))))
(assert (forall ((?v0 S12) (?v1 S13) (?v2 S45)) (=> (= (f60 ?v0) f1) (=> (= (f25 (f27 ?v1) (f93 (f94 ?v2) ?v0)) f1) (= (f61 ?v1) f1)))))
(assert (forall ((?v0 S12) (?v1 S10) (?v2 S47)) (=> (= (f60 ?v0) f1) (=> (= (f22 (f24 ?v1) (f95 (f96 ?v2) ?v0)) f1) (= (f73 ?v1) f1)))))
(assert (forall ((?v0 S12) (?v1 S14) (?v2 S49)) (=> (= (f60 ?v0) f1) (=> (= (f19 (f21 ?v1) (f97 (f98 ?v2) ?v0)) f1) (= (f75 ?v1) f1)))))
(assert (forall ((?v0 S10) (?v1 S14) (?v2 S51)) (=> (= (f73 ?v0) f1) (=> (= (f19 (f21 ?v1) (f99 (f100 ?v2) ?v0)) f1) (= (f75 ?v1) f1)))))
(assert (forall ((?v0 S10) (?v1 S10) (?v2 S53)) (=> (= (f73 ?v0) f1) (=> (= (f22 (f24 ?v1) (f43 (f101 ?v2) ?v0)) f1) (= (f73 ?v1) f1)))))
(assert (forall ((?v0 S10) (?v1 S13) (?v2 S54)) (=> (= (f73 ?v0) f1) (=> (= (f25 (f27 ?v1) (f102 (f103 ?v2) ?v0)) f1) (= (f61 ?v1) f1)))))
(assert (forall ((?v0 S4) (?v1 S3) (?v2 S2) (?v3 S14)) (=> (= ?v0 (f3 ?v1 ?v2)) (=> (= (f19 (f107 ?v2) ?v3) f1) (= (f16 (f108 ?v0) (f54 (f55 ?v1) ?v3)) f1)))))
(assert (forall ((?v0 S9) (?v1 S53) (?v2 S9) (?v3 S10)) (=> (= ?v0 (f109 ?v1 ?v2)) (=> (= (f22 (f110 ?v2) ?v3) f1) (= (f22 (f110 ?v0) (f43 (f101 ?v1) ?v3)) f1)))))
(assert (forall ((?v0 S12) (?v1 S54) (?v2 S9) (?v3 S10)) (=> (= ?v0 (f111 ?v1 ?v2)) (=> (= (f22 (f110 ?v2) ?v3) f1) (= (f25 (f112 ?v0) (f102 (f103 ?v1) ?v3)) f1)))))
(assert (forall ((?v0 S4) (?v1 S35) (?v2 S12) (?v3 S13)) (=> (= ?v0 (f113 ?v1 ?v2)) (=> (= (f25 (f112 ?v2) ?v3) f1) (= (f16 (f108 ?v0) (f83 (f84 ?v1) ?v3)) f1)))))
(assert (forall ((?v0 S9) (?v1 S47) (?v2 S4) (?v3 S12)) (=> (= ?v0 (f114 ?v1 ?v2)) (=> (= (f16 (f108 ?v2) ?v3) f1) (= (f22 (f110 ?v0) (f95 (f96 ?v1) ?v3)) f1)))))
(assert (forall ((?v0 S12) (?v1 S45) (?v2 S4) (?v3 S12)) (=> (= ?v0 (f115 ?v1 ?v2)) (=> (= (f16 (f108 ?v2) ?v3) f1) (= (f25 (f112 ?v0) (f93 (f94 ?v1) ?v3)) f1)))))
(assert (forall ((?v0 S2) (?v1 S51) (?v2 S9) (?v3 S10)) (=> (= ?v0 (f116 ?v1 ?v2)) (=> (= (f22 (f110 ?v2) ?v3) f1) (= (f19 (f107 ?v0) (f99 (f100 ?v1) ?v3)) f1)))))
(assert (forall ((?v0 S2) (?v1 S49) (?v2 S4) (?v3 S12)) (=> (= ?v0 (f117 ?v1 ?v2)) (=> (= (f16 (f108 ?v2) ?v3) f1) (= (f19 (f107 ?v0) (f97 (f98 ?v1) ?v3)) f1)))))
(assert (forall ((?v0 S4) (?v1 S37) (?v2 S9) (?v3 S10)) (=> (= ?v0 (f118 ?v1 ?v2)) (=> (= (f22 (f110 ?v2) ?v3) f1) (= (f16 (f108 ?v0) (f85 (f86 ?v1) ?v3)) f1)))))
(assert (forall ((?v0 S12) (?v1 S12) (?v2 S4)) (let ((?v_0 (f108 ?v2))) (=> (= (f16 (f18 ?v0) ?v1) f1) (=> (= (f16 ?v_0 ?v0) f1) (= (f16 ?v_0 ?v1) f1))))))
(assert (forall ((?v0 S10) (?v1 S10) (?v2 S9)) (let ((?v_0 (f110 ?v2))) (=> (= (f22 (f24 ?v0) ?v1) f1) (=> (= (f22 ?v_0 ?v0) f1) (= (f22 ?v_0 ?v1) f1))))))
(assert (forall ((?v0 S13) (?v1 S13) (?v2 S12)) (let ((?v_0 (f112 ?v2))) (=> (= (f25 (f27 ?v0) ?v1) f1) (=> (= (f25 ?v_0 ?v0) f1) (= (f25 ?v_0 ?v1) f1))))))
(assert (forall ((?v0 S14) (?v1 S14) (?v2 S2)) (let ((?v_0 (f107 ?v2))) (=> (= (f19 (f21 ?v0) ?v1) f1) (=> (= (f19 ?v_0 ?v0) f1) (= (f19 ?v_0 ?v1) f1))))))
(assert (forall ((?v0 S12) (?v1 S12)) (=> (= (f16 (f18 ?v0) ?v1) f1) (=> (= (f16 (f18 ?v1) ?v0) f1) (= ?v0 ?v1)))))
(assert (forall ((?v0 S10) (?v1 S10)) (=> (= (f22 (f24 ?v0) ?v1) f1) (=> (= (f22 (f24 ?v1) ?v0) f1) (= ?v0 ?v1)))))
(assert (forall ((?v0 S13) (?v1 S13)) (=> (= (f25 (f27 ?v0) ?v1) f1) (=> (= (f25 (f27 ?v1) ?v0) f1) (= ?v0 ?v1)))))
(assert (forall ((?v0 S14) (?v1 S14)) (=> (= (f19 (f21 ?v0) ?v1) f1) (=> (= (f19 (f21 ?v1) ?v0) f1) (= ?v0 ?v1)))))
(assert (forall ((?v0 S12)) (= (f16 (f18 ?v0) ?v0) f1)))
(assert (forall ((?v0 S10)) (= (f22 (f24 ?v0) ?v0) f1)))
(assert (forall ((?v0 S13)) (= (f25 (f27 ?v0) ?v0) f1)))
(assert (forall ((?v0 S14)) (= (f19 (f21 ?v0) ?v0) f1)))
(assert (forall ((?v0 S12) (?v1 S3) (?v2 S14)) (= (= (f16 (f18 ?v0) (f54 (f55 ?v1) ?v2)) f1) (exists ((?v3 S14)) (and (= (f19 (f21 ?v3) ?v2) f1) (= ?v0 (f54 (f55 ?v1) ?v3)))))))
(assert (forall ((?v0 S14) (?v1 S49) (?v2 S12)) (= (= (f19 (f21 ?v0) (f97 (f98 ?v1) ?v2)) f1) (exists ((?v3 S12)) (and (= (f16 (f18 ?v3) ?v2) f1) (= ?v0 (f97 (f98 ?v1) ?v3)))))))
(assert (forall ((?v0 S12) (?v1 S37) (?v2 S10)) (= (= (f16 (f18 ?v0) (f85 (f86 ?v1) ?v2)) f1) (exists ((?v3 S10)) (and (= (f22 (f24 ?v3) ?v2) f1) (= ?v0 (f85 (f86 ?v1) ?v3)))))))
(assert (forall ((?v0 S14) (?v1 S51) (?v2 S10)) (= (= (f19 (f21 ?v0) (f99 (f100 ?v1) ?v2)) f1) (exists ((?v3 S10)) (and (= (f22 (f24 ?v3) ?v2) f1) (= ?v0 (f99 (f100 ?v1) ?v3)))))))
(assert (forall ((?v0 S10) (?v1 S53) (?v2 S10)) (= (= (f22 (f24 ?v0) (f43 (f101 ?v1) ?v2)) f1) (exists ((?v3 S10)) (and (= (f22 (f24 ?v3) ?v2) f1) (= ?v0 (f43 (f101 ?v1) ?v3)))))))
(assert (forall ((?v0 S13) (?v1 S54) (?v2 S10)) (= (= (f25 (f27 ?v0) (f102 (f103 ?v1) ?v2)) f1) (exists ((?v3 S10)) (and (= (f22 (f24 ?v3) ?v2) f1) (= ?v0 (f102 (f103 ?v1) ?v3)))))))
(assert (forall ((?v0 S10) (?v1 S47) (?v2 S12)) (= (= (f22 (f24 ?v0) (f95 (f96 ?v1) ?v2)) f1) (exists ((?v3 S12)) (and (= (f16 (f18 ?v3) ?v2) f1) (= ?v0 (f95 (f96 ?v1) ?v3)))))))
(assert (forall ((?v0 S13) (?v1 S45) (?v2 S12)) (= (= (f25 (f27 ?v0) (f93 (f94 ?v1) ?v2)) f1) (exists ((?v3 S12)) (and (= (f16 (f18 ?v3) ?v2) f1) (= ?v0 (f93 (f94 ?v1) ?v3)))))))
(assert (forall ((?v0 S12) (?v1 S35) (?v2 S13)) (= (= (f16 (f18 ?v0) (f83 (f84 ?v1) ?v2)) f1) (exists ((?v3 S13)) (and (= (f25 (f27 ?v3) ?v2) f1) (= ?v0 (f83 (f84 ?v1) ?v3)))))))
(assert (forall ((?v0 S14) (?v1 S14) (?v2 S3)) (let ((?v_0 (f55 ?v2))) (=> (= (f19 (f21 ?v0) ?v1) f1) (= (f16 (f18 (f54 ?v_0 ?v0)) (f54 ?v_0 ?v1)) f1)))))
(assert (forall ((?v0 S10) (?v1 S10) (?v2 S37)) (let ((?v_0 (f86 ?v2))) (=> (= (f22 (f24 ?v0) ?v1) f1) (= (f16 (f18 (f85 ?v_0 ?v0)) (f85 ?v_0 ?v1)) f1)))))
(assert (forall ((?v0 S12) (?v1 S12) (?v2 S49)) (let ((?v_0 (f98 ?v2))) (=> (= (f16 (f18 ?v0) ?v1) f1) (= (f19 (f21 (f97 ?v_0 ?v0)) (f97 ?v_0 ?v1)) f1)))))
(assert (forall ((?v0 S10) (?v1 S10) (?v2 S51)) (let ((?v_0 (f100 ?v2))) (=> (= (f22 (f24 ?v0) ?v1) f1) (= (f19 (f21 (f99 ?v_0 ?v0)) (f99 ?v_0 ?v1)) f1)))))
(assert (forall ((?v0 S10) (?v1 S10) (?v2 S53)) (let ((?v_0 (f101 ?v2))) (=> (= (f22 (f24 ?v0) ?v1) f1) (= (f22 (f24 (f43 ?v_0 ?v0)) (f43 ?v_0 ?v1)) f1)))))
(assert (forall ((?v0 S10) (?v1 S10) (?v2 S54)) (let ((?v_0 (f103 ?v2))) (=> (= (f22 (f24 ?v0) ?v1) f1) (= (f25 (f27 (f102 ?v_0 ?v0)) (f102 ?v_0 ?v1)) f1)))))
(assert (forall ((?v0 S12) (?v1 S12) (?v2 S47)) (let ((?v_0 (f96 ?v2))) (=> (= (f16 (f18 ?v0) ?v1) f1) (= (f22 (f24 (f95 ?v_0 ?v0)) (f95 ?v_0 ?v1)) f1)))))
(assert (forall ((?v0 S12) (?v1 S12) (?v2 S45)) (let ((?v_0 (f94 ?v2))) (=> (= (f16 (f18 ?v0) ?v1) f1) (= (f25 (f27 (f93 ?v_0 ?v0)) (f93 ?v_0 ?v1)) f1)))))
(assert (forall ((?v0 S13) (?v1 S13) (?v2 S35)) (let ((?v_0 (f84 ?v2))) (=> (= (f25 (f27 ?v0) ?v1) f1) (= (f16 (f18 (f83 ?v_0 ?v0)) (f83 ?v_0 ?v1)) f1)))))
(assert (forall ((?v0 S12) (?v1 S12)) (=> (= (f60 ?v0) f1) (=> (= (f16 (f18 ?v1) ?v0) f1) (= (f60 ?v1) f1)))))
(assert (forall ((?v0 S15) (?v1 S15)) (=> (= (f63 ?v0) f1) (=> (= (f30 ?v1 ?v0) f1) (= (f63 ?v1) f1)))))
(assert (forall ((?v0 S16) (?v1 S16)) (=> (= (f66 ?v0) f1) (=> (= (f33 ?v1 ?v0) f1) (= (f66 ?v1) f1)))))
(assert (forall ((?v0 S17) (?v1 S17)) (=> (= (f69 ?v0) f1) (=> (= (f36 ?v1 ?v0) f1) (= (f69 ?v1) f1)))))
(assert (forall ((?v0 S13) (?v1 S13)) (=> (= (f61 ?v0) f1) (=> (= (f25 (f27 ?v1) ?v0) f1) (= (f61 ?v1) f1)))))
(assert (forall ((?v0 S10) (?v1 S10)) (=> (= (f73 ?v0) f1) (=> (= (f22 (f24 ?v1) ?v0) f1) (= (f73 ?v1) f1)))))
(assert (forall ((?v0 S14) (?v1 S14)) (=> (= (f75 ?v0) f1) (=> (= (f19 (f21 ?v1) ?v0) f1) (= (f75 ?v1) f1)))))
(assert (forall ((?v0 S12) (?v1 S12)) (=> (= (f16 (f18 ?v0) ?v1) f1) (=> (= (f60 ?v1) f1) (= (f60 ?v0) f1)))))
(assert (forall ((?v0 S15) (?v1 S15)) (=> (= (f30 ?v0 ?v1) f1) (=> (= (f63 ?v1) f1) (= (f63 ?v0) f1)))))
(assert (forall ((?v0 S16) (?v1 S16)) (=> (= (f33 ?v0 ?v1) f1) (=> (= (f66 ?v1) f1) (= (f66 ?v0) f1)))))
(assert (forall ((?v0 S17) (?v1 S17)) (=> (= (f36 ?v0 ?v1) f1) (=> (= (f69 ?v1) f1) (= (f69 ?v0) f1)))))
(assert (forall ((?v0 S13) (?v1 S13)) (=> (= (f25 (f27 ?v0) ?v1) f1) (=> (= (f61 ?v1) f1) (= (f61 ?v0) f1)))))
(assert (forall ((?v0 S10) (?v1 S10)) (=> (= (f22 (f24 ?v0) ?v1) f1) (=> (= (f73 ?v1) f1) (= (f73 ?v0) f1)))))
(assert (forall ((?v0 S14) (?v1 S14)) (=> (= (f19 (f21 ?v0) ?v1) f1) (=> (= (f75 ?v1) f1) (= (f75 ?v0) f1)))))
(assert (forall ((?v0 S12) (?v1 S37) (?v2 S9)) (=> (= ?v0 (f85 (f86 ?v1) (f104 (f13 ?v2)))) (= (f60 ?v0) f1))))
(assert (forall ((?v0 S15) (?v1 S56) (?v2 S9)) (=> (= ?v0 (f119 (f120 ?v1) (f104 (f13 ?v2)))) (= (f63 ?v0) f1))))
(assert (forall ((?v0 S16) (?v1 S58) (?v2 S9)) (=> (= ?v0 (f121 (f122 ?v1) (f104 (f13 ?v2)))) (= (f66 ?v0) f1))))
(assert (forall ((?v0 S17) (?v1 S60) (?v2 S9)) (=> (= ?v0 (f123 (f124 ?v1) (f104 (f13 ?v2)))) (= (f69 ?v0) f1))))
(assert (forall ((?v0 S13) (?v1 S54) (?v2 S9)) (=> (= ?v0 (f102 (f103 ?v1) (f104 (f13 ?v2)))) (= (f61 ?v0) f1))))
(assert (forall ((?v0 S10) (?v1 S53) (?v2 S9)) (=> (= ?v0 (f43 (f101 ?v1) (f104 (f13 ?v2)))) (= (f73 ?v0) f1))))
(assert (forall ((?v0 S14) (?v1 S51) (?v2 S9)) (=> (= ?v0 (f99 (f100 ?v1) (f104 (f13 ?v2)))) (= (f75 ?v0) f1))))
(assert (forall ((?v0 S12) (?v1 S12) (?v2 S12)) (let ((?v_0 (f18 ?v2))) (=> (= (f16 (f18 ?v0) ?v1) f1) (=> (= (f16 ?v_0 ?v0) f1) (= (f16 ?v_0 ?v1) f1))))))
(assert (forall ((?v0 S10) (?v1 S10) (?v2 S10)) (let ((?v_0 (f24 ?v2))) (=> (= (f22 (f24 ?v0) ?v1) f1) (=> (= (f22 ?v_0 ?v0) f1) (= (f22 ?v_0 ?v1) f1))))))
(assert (forall ((?v0 S13) (?v1 S13) (?v2 S13)) (let ((?v_0 (f27 ?v2))) (=> (= (f25 (f27 ?v0) ?v1) f1) (=> (= (f25 ?v_0 ?v0) f1) (= (f25 ?v_0 ?v1) f1))))))
(assert (forall ((?v0 S14) (?v1 S14) (?v2 S14)) (let ((?v_0 (f21 ?v2))) (=> (= (f19 (f21 ?v0) ?v1) f1) (=> (= (f19 ?v_0 ?v0) f1) (= (f19 ?v_0 ?v1) f1))))))
(assert (forall ((?v0 S12) (?v1 S12)) (=> (= (f16 (f18 ?v0) ?v1) f1) (=> (= (f16 (f18 ?v1) ?v0) f1) (= ?v1 ?v0)))))
(assert (forall ((?v0 S10) (?v1 S10)) (=> (= (f22 (f24 ?v0) ?v1) f1) (=> (= (f22 (f24 ?v1) ?v0) f1) (= ?v1 ?v0)))))
(assert (forall ((?v0 S13) (?v1 S13)) (=> (= (f25 (f27 ?v0) ?v1) f1) (=> (= (f25 (f27 ?v1) ?v0) f1) (= ?v1 ?v0)))))
(assert (forall ((?v0 S14) (?v1 S14)) (=> (= (f19 (f21 ?v0) ?v1) f1) (=> (= (f19 (f21 ?v1) ?v0) f1) (= ?v1 ?v0)))))
(assert (forall ((?v0 S12) (?v1 S12) (?v2 S12)) (let ((?v_0 (f18 ?v0))) (=> (= (f16 ?v_0 ?v1) f1) (=> (= (f16 (f18 ?v1) ?v2) f1) (= (f16 ?v_0 ?v2) f1))))))
(assert (forall ((?v0 S10) (?v1 S10) (?v2 S10)) (let ((?v_0 (f24 ?v0))) (=> (= (f22 ?v_0 ?v1) f1) (=> (= (f22 (f24 ?v1) ?v2) f1) (= (f22 ?v_0 ?v2) f1))))))
(assert (forall ((?v0 S13) (?v1 S13) (?v2 S13)) (let ((?v_0 (f27 ?v0))) (=> (= (f25 ?v_0 ?v1) f1) (=> (= (f25 (f27 ?v1) ?v2) f1) (= (f25 ?v_0 ?v2) f1))))))
(assert (forall ((?v0 S14) (?v1 S14) (?v2 S14)) (let ((?v_0 (f21 ?v0))) (=> (= (f19 ?v_0 ?v1) f1) (=> (= (f19 (f21 ?v1) ?v2) f1) (= (f19 ?v_0 ?v2) f1))))))
(assert (forall ((?v0 S12) (?v1 S12)) (=> (= (f16 (f18 ?v0) ?v1) f1) (=> (= (f16 (f18 ?v1) ?v0) f1) (= ?v0 ?v1)))))
(assert (forall ((?v0 S10) (?v1 S10)) (=> (= (f22 (f24 ?v0) ?v1) f1) (=> (= (f22 (f24 ?v1) ?v0) f1) (= ?v0 ?v1)))))
(assert (forall ((?v0 S13) (?v1 S13)) (=> (= (f25 (f27 ?v0) ?v1) f1) (=> (= (f25 (f27 ?v1) ?v0) f1) (= ?v0 ?v1)))))
(assert (forall ((?v0 S14) (?v1 S14)) (=> (= (f19 (f21 ?v0) ?v1) f1) (=> (= (f19 (f21 ?v1) ?v0) f1) (= ?v0 ?v1)))))
(assert (forall ((?v0 S12) (?v1 S12) (?v2 S12)) (=> (= (f16 (f18 ?v0) ?v1) f1) (=> (= ?v0 ?v2) (= (f16 (f18 ?v2) ?v1) f1)))))
(assert (forall ((?v0 S10) (?v1 S10) (?v2 S10)) (=> (= (f22 (f24 ?v0) ?v1) f1) (=> (= ?v0 ?v2) (= (f22 (f24 ?v2) ?v1) f1)))))
(assert (forall ((?v0 S13) (?v1 S13) (?v2 S13)) (=> (= (f25 (f27 ?v0) ?v1) f1) (=> (= ?v0 ?v2) (= (f25 (f27 ?v2) ?v1) f1)))))
(assert (forall ((?v0 S14) (?v1 S14) (?v2 S14)) (=> (= (f19 (f21 ?v0) ?v1) f1) (=> (= ?v0 ?v2) (= (f19 (f21 ?v2) ?v1) f1)))))
(assert (forall ((?v0 S12) (?v1 S12) (?v2 S12)) (let ((?v_0 (f18 ?v0))) (=> (= (f16 ?v_0 ?v1) f1) (=> (= ?v1 ?v2) (= (f16 ?v_0 ?v2) f1))))))
(assert (forall ((?v0 S10) (?v1 S10) (?v2 S10)) (let ((?v_0 (f24 ?v0))) (=> (= (f22 ?v_0 ?v1) f1) (=> (= ?v1 ?v2) (= (f22 ?v_0 ?v2) f1))))))
(assert (forall ((?v0 S13) (?v1 S13) (?v2 S13)) (let ((?v_0 (f27 ?v0))) (=> (= (f25 ?v_0 ?v1) f1) (=> (= ?v1 ?v2) (= (f25 ?v_0 ?v2) f1))))))
(assert (forall ((?v0 S14) (?v1 S14) (?v2 S14)) (let ((?v_0 (f21 ?v0))) (=> (= (f19 ?v_0 ?v1) f1) (=> (= ?v1 ?v2) (= (f19 ?v_0 ?v2) f1))))))
(assert (forall ((?v0 S12) (?v1 S12) (?v2 S12)) (let ((?v_0 (f18 ?v2))) (=> (= ?v0 ?v1) (=> (= (f16 ?v_0 ?v1) f1) (= (f16 ?v_0 ?v0) f1))))))
(assert (forall ((?v0 S10) (?v1 S10) (?v2 S10)) (let ((?v_0 (f24 ?v2))) (=> (= ?v0 ?v1) (=> (= (f22 ?v_0 ?v1) f1) (= (f22 ?v_0 ?v0) f1))))))
(assert (forall ((?v0 S13) (?v1 S13) (?v2 S13)) (let ((?v_0 (f27 ?v2))) (=> (= ?v0 ?v1) (=> (= (f25 ?v_0 ?v1) f1) (= (f25 ?v_0 ?v0) f1))))))
(assert (forall ((?v0 S14) (?v1 S14) (?v2 S14)) (let ((?v_0 (f21 ?v2))) (=> (= ?v0 ?v1) (=> (= (f19 ?v_0 ?v1) f1) (= (f19 ?v_0 ?v0) f1))))))
(assert (forall ((?v0 S12) (?v1 S12) (?v2 S12)) (=> (= ?v0 ?v1) (=> (= (f16 (f18 ?v1) ?v2) f1) (= (f16 (f18 ?v0) ?v2) f1)))))
(assert (forall ((?v0 S10) (?v1 S10) (?v2 S10)) (=> (= ?v0 ?v1) (=> (= (f22 (f24 ?v1) ?v2) f1) (= (f22 (f24 ?v0) ?v2) f1)))))
(assert (forall ((?v0 S13) (?v1 S13) (?v2 S13)) (=> (= ?v0 ?v1) (=> (= (f25 (f27 ?v1) ?v2) f1) (= (f25 (f27 ?v0) ?v2) f1)))))
(assert (forall ((?v0 S14) (?v1 S14) (?v2 S14)) (=> (= ?v0 ?v1) (=> (= (f19 (f21 ?v1) ?v2) f1) (= (f19 (f21 ?v0) ?v2) f1)))))
(assert (forall ((?v0 S12) (?v1 S12)) (=> (= (f16 (f18 ?v0) ?v1) f1) (= (= (f16 (f18 ?v1) ?v0) f1) (= ?v1 ?v0)))))
(assert (forall ((?v0 S10) (?v1 S10)) (=> (= (f22 (f24 ?v0) ?v1) f1) (= (= (f22 (f24 ?v1) ?v0) f1) (= ?v1 ?v0)))))
(assert (forall ((?v0 S13) (?v1 S13)) (=> (= (f25 (f27 ?v0) ?v1) f1) (= (= (f25 (f27 ?v1) ?v0) f1) (= ?v1 ?v0)))))
(assert (forall ((?v0 S14) (?v1 S14)) (=> (= (f19 (f21 ?v0) ?v1) f1) (= (= (f19 (f21 ?v1) ?v0) f1) (= ?v1 ?v0)))))
(assert (forall ((?v0 S12) (?v1 S12)) (=> (= ?v0 ?v1) (= (f16 (f18 ?v0) ?v1) f1))))
(assert (forall ((?v0 S10) (?v1 S10)) (=> (= ?v0 ?v1) (= (f22 (f24 ?v0) ?v1) f1))))
(assert (forall ((?v0 S13) (?v1 S13)) (=> (= ?v0 ?v1) (= (f25 (f27 ?v0) ?v1) f1))))
(assert (forall ((?v0 S14) (?v1 S14)) (=> (= ?v0 ?v1) (= (f19 (f21 ?v0) ?v1) f1))))
(assert (forall ((?v0 S12) (?v1 S12)) (= (= ?v0 ?v1) (and (= (f16 (f18 ?v0) ?v1) f1) (= (f16 (f18 ?v1) ?v0) f1)))))
(assert (forall ((?v0 S10) (?v1 S10)) (= (= ?v0 ?v1) (and (= (f22 (f24 ?v0) ?v1) f1) (= (f22 (f24 ?v1) ?v0) f1)))))
(assert (forall ((?v0 S13) (?v1 S13)) (= (= ?v0 ?v1) (and (= (f25 (f27 ?v0) ?v1) f1) (= (f25 (f27 ?v1) ?v0) f1)))))
(assert (forall ((?v0 S14) (?v1 S14)) (= (= ?v0 ?v1) (and (= (f19 (f21 ?v0) ?v1) f1) (= (f19 (f21 ?v1) ?v0) f1)))))
(assert (forall ((?v0 S9)) (= (f125 f126 (f14 f15 ?v0)) ?v0)))
(assert (forall ((?v0 Int)) (=> (<= 0 ?v0) (= (f14 f15 (f125 f126 ?v0)) ?v0))))
(assert (forall ((?v0 Int)) (=> (< ?v0 0) (= (f14 f15 (f125 f126 ?v0)) 0))))
(check-sat)
(exit)
